NAME : traveling-santa-2018-prime-paths.30403.tour
COMMENT : Length = 30403
COMMENT : Found by LKH [Keld Helsgaun] Sun Jun 12 20:00:32 2022
TYPE : TOUR
DIMENSION : 100
TOUR_SECTION
1
44
90
12
24
51
92
26
8
22
59
7
55
50
86
100
28
73
52
97
78
20
27
85
77
58
98
48
43
32
80
30
75
88
66
46
15
38
2
99
11
6
14
65
72
23
35
70
83
34
93
56
10
57
62
69
67
18
76
45
42
94
79
29
63
74
25
82
89
39
54
95
21
17
84
53
71
41
40
68
33
19
36
37
13
96
81
4
5
61
16
49
3
60
9
87
47
64
31
91
-1
EOF
